c turning on binary mode checking
c parsing input formula with 259840 variables and 1039934 clauses
c finished parsing, read 23310039 bytes from proof file
c detected empty clause; start verification via backward checking
c 13388 of 1039934 clauses in core                            
c 16284 of 603084 lemmas in core using 182469 resolution steps
c 0 RAT lemmas in core; 1591 redundant literals in core lemmas
s VERIFIED
c verification time: 2.865 seconds
